(set-info :smt-lib-version 2.6)
(set-logic QF_NIA)
(set-info :source |
Problem: Sum of three cubes
Generate by: Fuqi Jia, Minghao Liu, Pei Huang, Feifei Ma, Jian Zhang
Generated on: 2022-02-28
Generator: https://github.com/MRVAPOR/math_puzzles_smtlib_generator
Application: Solving hard mathematical problems
Target solver: z3
|)
(set-info :license "https://creativecommons.org/licenses/by/4.0/")
(set-info :category "crafted")
(set-info :status sat)
(declare-fun x () Int)
(declare-fun y () Int)
(declare-fun z () Int)
(assert (= (+ (* x x x) (* y y y) (* z z z)) 983))
(check-sat)
;;(get-assignment)
;;(get-model)
(exit)
